18
3 0 22 0
3 0 3 0
3 0 4 0
3 0 16 0
3 0 7 0
3 0 5 0
3 0 12 0
3 0 8 0
3 0 15 0
3 0 26 0
9 0 9 11 27 18 28 31 25 0
3 0 30 0
3 0 21 0
3 0 29 0
5 0 6 10 14 0
5 0 1 13 33 0
5 0 2 19 20 0
9 0 17 23 24 35 32 36 34 0
